n = 30;
m = [2,2,2,2,2,2,2,2,2,2,2,4,2,3,2,3,2,4,2,2,3,2,12,2,7,2,2,5,2,2];
r = 44;
g1 = [1,2,1,7,8,10,4,4,5,3,6,11,12,11,17,18,20,14,14,15,13,16,21,22,21,27,28,30,24,24,25,23,26,21,22,21,27,28,30,24,24,25,23,26];
g2 = [3,4,4,9,9,9,6,7,10,10,9,13,14,14,19,19,19,16,17,20,20,19,3,4,4,9,9,9,6,7,10,10,9,13,14,14,19,19,19,16,17,20,20,19];

